n_res = 4;
rc = [ 0, 0, 0, 0 ];
n_tasks = 30;
d = [ 5, 6, 2, 10, 8, 6, 3, 5, 2, 9, 10, 1, 2, 1, 6, 2, 2, 8, 10, 8, 1, 1, 9, 5, 3, 7, 6, 3, 1, 9 ];
rr = [| 0, 0, 0, 0, 0, 0, 0, 0, 0, 0, 0, 0, 0, 0, 0, 0, 0, 0, 0, 0, 0, 0, 0, 0, 0, 0, 0, 0, 0, 0
      | 0, 0, 0, 0, 0, 0, 0, 0, 0, 0, 0, 0, 0, 0, 0, 0, 0, 0, 0, 0, 0, 0, 0, 0, 0, 0, 0, 0, 0, 0
      | 0, 0, 0, 0, 0, 0, 0, 0, 0, 0, 0, 0, 0, 0, 0, 0, 0, 0, 0, 0, 0, 0, 0, 0, 0, 0, 0, 0, 0, 0
      | 0, 0, 0, 0, 0, 0, 0, 0, 0, 0, 0, 0, 0, 0, 0, 0, 0, 0, 0, 0, 0, 0, 0, 0, 0, 0, 0, 0, 0, 0 |];
suc = [ { 4, 19, 29 },
       { 5, 6, 7 },
       { 7, 9, 12 },
       { 9, 16, 18 },
       { 10, 12, 21 },
       { 8, 11, 14 },
       { 18, 22, 25 },
       { 15, 16, 20 },
       { 10, 17 },
       { 15, 20, 30 },
       { 16, 19, 29 },
       { 13, 15, 19 },
       { 14, 18, 26 },
       { 17, 22 },
       { 24, 25 },
       { 17 },
       { 25, 27 },
       { 23 },
       { 20, 26, 30 },
       { 23, 24 },
       { 22, 26, 30 },
       { 23, 24, 29 },
       { 27 },
       { 27 },
       { 28 },
       { 28 },
       { 28 },
       {  },
       {  },
       {  } ];
